
Gurobi 9.1.2 (linux64) logging started Wed Nov 24 10:26:26 2021

Changed value of parameter LogFile to lemke_square_v-(6, 4).log-s20-l10.log
   Prev:   Default: 
Changed value of parameter Threads to 32
   Prev: 0  Min: 0  Max: 1024  Default: 0
Changed value of parameter TimeLimit to 3600.0
   Prev: inf  Min: 0.0  Max: inf  Default: inf
Changed value of parameter MIPGap to 0.4
   Prev: 0.0001  Min: 0.0  Max: inf  Default: 0.0001
Warning: variable name "X[(7, 4),(7, 3)]" has a space
Warning: constraint name "flow-constr-t0-v(3, 0)" has a space
Warning: to let Gurobi read it back, use rlp format
Gurobi Optimizer version 9.1.2 build v9.1.2rc0 (linux64)
Thread count: 16 physical cores, 32 logical processors, using up to 32 threads
Optimize a model with 6033 rows, 5440 columns and 20720 nonzeros
Model fingerprint: 0xb9dbbaf1
Variable types: 0 continuous, 5440 integer (4800 binary)
Coefficient statistics:
  Matrix range     [1e+00, 1e+03]
  Objective range  [1e-01, 1e-01]
  Bounds range     [1e+00, 5e+02]
  RHS range        [1e+00, 1e+03]
Presolve removed 477 rows and 500 columns
Presolve time: 0.03s
Presolved: 5556 rows, 4940 columns, 18470 nonzeros
Variable types: 0 continuous, 4940 integer (4300 binary)

Root relaxation: objective 6.400000e+01, 128 iterations, 0.00 seconds

    Nodes    |    Current Node    |     Objective Bounds      |     Work
 Expl Unexpl |  Obj  Depth IntInf | Incumbent    BestBd   Gap | It/Node Time

     0     0   64.00000    0   44          -   64.00000      -     -    0s
     0     0   64.00000    0   73          -   64.00000      -     -    0s
     0     0   64.00000    0   32          -   64.00000      -     -    0s
     0     0   64.00000    0   34          -   64.00000      -     -    0s
     0     0   64.00000    0   47          -   64.00000      -     -    0s
     0     0   64.00000    0   32          -   64.00000      -     -    0s
H    0     0                    3195.0000000   64.00000  98.0%     -    0s
     0     0   64.00000    0   32 3195.00000   64.00000  98.0%     -    0s
H    0     0                     135.7000000   64.00000  52.8%     -    0s
H    0     0                     133.1000000   64.00000  51.9%     -    0s
     0     2   64.00000    0   32  133.10000   64.00000  51.9%     -    0s
H   34    64                     132.3000000   64.00000  51.6%  51.1    1s
H   37    64                     131.7000000   64.00000  51.4%  50.5    1s
H   55    64                     125.6000000   64.00000  49.0%  50.5    1s

Cutting planes:
  Gomory: 2
  Cover: 83
  Implied bound: 127
  Clique: 9
  MIR: 37
  Flow cover: 23
  RLT: 9
  Relax-and-lift: 18

Explored 63 nodes (6081 simplex iterations) in 1.16 seconds
Thread count was 32 (of 32 available processors)

Solution count 6: 125.6 131.7 132.3 ... 3195

Solve interrupted
Best objective 1.256000000000e+02, best bound 6.400000000000e+01, gap 49.0446%

Gurobi 9.1.2 (linux64) logging started Wed Nov 24 10:31:24 2021

Changed value of parameter LogFile to lemke_square_v-(6, 4).log-s20-l10.log
   Prev:   Default: 
Changed value of parameter Threads to 32
   Prev: 0  Min: 0  Max: 1024  Default: 0
Changed value of parameter TimeLimit to 3600.0
   Prev: inf  Min: 0.0  Max: inf  Default: inf
Changed value of parameter MIPGap to 0.4
   Prev: 0.0001  Min: 0.0  Max: inf  Default: 0.0001
Warning: variable name "X[(7, 4),(7, 3)]" has a space
Warning: constraint name "flow-constr-t0-v(3, 0)" has a space
Warning: to let Gurobi read it back, use rlp format
Gurobi Optimizer version 9.1.2 build v9.1.2rc0 (linux64)
Thread count: 16 physical cores, 32 logical processors, using up to 32 threads
Optimize a model with 6033 rows, 5440 columns and 20720 nonzeros
Model fingerprint: 0xb9dbbaf1
Variable types: 0 continuous, 5440 integer (4800 binary)
Coefficient statistics:
  Matrix range     [1e+00, 1e+03]
  Objective range  [1e-01, 1e-01]
  Bounds range     [1e+00, 5e+02]
  RHS range        [1e+00, 1e+03]
Presolve removed 477 rows and 500 columns
Presolve time: 0.04s
Presolved: 5556 rows, 4940 columns, 18470 nonzeros
Variable types: 0 continuous, 4940 integer (4300 binary)

Root relaxation: objective 6.400000e+01, 128 iterations, 0.00 seconds

    Nodes    |    Current Node    |     Objective Bounds      |     Work
 Expl Unexpl |  Obj  Depth IntInf | Incumbent    BestBd   Gap | It/Node Time

     0     0   64.00000    0   44          -   64.00000      -     -    0s
     0     0   64.00000    0   73          -   64.00000      -     -    0s
     0     0   64.00000    0   32          -   64.00000      -     -    0s
     0     0   64.00000    0   34          -   64.00000      -     -    0s
     0     0   64.00000    0   47          -   64.00000      -     -    0s
     0     0   64.00000    0   32          -   64.00000      -     -    0s
H    0     0                    3195.0000000   64.00000  98.0%     -    0s
     0     0   64.00000    0   32 3195.00000   64.00000  98.0%     -    0s
H    0     0                     135.7000000   64.00000  52.8%     -    0s
H    0     0                     133.1000000   64.00000  51.9%     -    0s
     0     2   64.00000    0   32  133.10000   64.00000  51.9%     -    0s
H   31    64                     128.5000000   64.00000  50.2%  51.1    1s
H   34    64                     123.1000000   64.00000  48.0%  51.1    1s
H   38    64                     116.5000000   64.00000  45.1%  50.6    1s
H   49    64                     108.0000000   64.00000  40.7%  50.5    1s
H   95   128                     104.7000000   64.00000  38.9%  40.9    3s
H   96   128                     103.6000000   64.00000  38.2%  40.7    3s
H   98   128                     101.4000000   64.00000  36.9%  39.9    3s
H  110   128                      99.7000000   64.00000  35.8%  35.9    3s

Cutting planes:
  Gomory: 2
  Cover: 83
  Implied bound: 127
  Clique: 9
  MIR: 37
  Flow cover: 23
  RLT: 9
  Relax-and-lift: 18

Explored 127 nodes (6897 simplex iterations) in 3.54 seconds
Thread count was 32 (of 32 available processors)

Solution count 10: 99.7 101.4 103.6 ... 135.7

Optimal solution found (tolerance 4.00e-01)
Best objective 9.970000000000e+01, best bound 6.400000000000e+01, gap 35.8074%

Gurobi 9.1.2 (linux64) logging started Wed Nov 24 11:38:36 2021

Changed value of parameter LogFile to lemke_square_v-(6, 4).log-s20-l10.log
   Prev:   Default: 
Changed value of parameter Threads to 32
   Prev: 0  Min: 0  Max: 1024  Default: 0
Changed value of parameter TimeLimit to 3600.0
   Prev: inf  Min: 0.0  Max: inf  Default: inf
Changed value of parameter MIPGap to 0.34
   Prev: 0.0001  Min: 0.0  Max: inf  Default: 0.0001
Warning: variable name "X[(7, 4),(7, 3)]" has a space
Warning: constraint name "flow-constr-t0-v(3, 0)" has a space
Warning: to let Gurobi read it back, use rlp format
Gurobi Optimizer version 9.1.2 build v9.1.2rc0 (linux64)
Thread count: 16 physical cores, 32 logical processors, using up to 32 threads
Optimize a model with 6033 rows, 5440 columns and 20720 nonzeros
Model fingerprint: 0xb9dbbaf1
Variable types: 0 continuous, 5440 integer (4800 binary)
Coefficient statistics:
  Matrix range     [1e+00, 1e+03]
  Objective range  [1e-01, 1e-01]
  Bounds range     [1e+00, 5e+02]
  RHS range        [1e+00, 1e+03]
Presolve removed 477 rows and 500 columns
Presolve time: 0.04s
Presolved: 5556 rows, 4940 columns, 18470 nonzeros
Variable types: 0 continuous, 4940 integer (4300 binary)

Root relaxation: objective 6.400000e+01, 128 iterations, 0.00 seconds

    Nodes    |    Current Node    |     Objective Bounds      |     Work
 Expl Unexpl |  Obj  Depth IntInf | Incumbent    BestBd   Gap | It/Node Time

     0     0   64.00000    0   44          -   64.00000      -     -    0s
     0     0   64.00000    0   73          -   64.00000      -     -    0s
     0     0   64.00000    0   32          -   64.00000      -     -    0s
     0     0   64.00000    0   34          -   64.00000      -     -    0s
     0     0   64.00000    0   47          -   64.00000      -     -    0s
     0     0   64.00000    0   32          -   64.00000      -     -    0s
H    0     0                    3195.0000000   64.00000  98.0%     -    0s
     0     0   64.00000    0   32 3195.00000   64.00000  98.0%     -    0s
H    0     0                     135.7000000   64.00000  52.8%     -    0s
H    0     0                     133.1000000   64.00000  51.9%     -    0s
     0     2   64.00000    0   32  133.10000   64.00000  51.9%     -    0s
H   31    64                     128.5000000   64.00000  50.2%  51.1    1s
H   34    64                     123.1000000   64.00000  48.0%  51.1    1s
H   38    64                     116.5000000   64.00000  45.1%  50.6    1s
H   49    64                     108.0000000   64.00000  40.7%  50.5    1s
H   95   128                     104.7000000   64.00000  38.9%  40.9    3s
H   96   128                     103.6000000   64.00000  38.2%  40.7    3s
H   98   128                     101.4000000   64.00000  36.9%  39.9    3s
H  110   128                      99.7000000   64.00000  35.8%  35.9    3s
  6010  7621   66.20000  162  104   99.70000   64.00000  35.8%  14.7    5s
H10452  9702                      96.4000000   64.00000  33.6%  13.1    5s

Explored 10453 nodes (140299 simplex iterations) in 6.11 seconds
Thread count was 32 (of 32 available processors)

Solution count 10: 96.4 99.7 101.4 ... 133.1

Optimal solution found (tolerance 3.40e-01)
Best objective 9.640000000000e+01, best bound 6.400000000000e+01, gap 33.6100%

Gurobi 9.1.2 (linux64) logging started Wed Nov 24 11:39:42 2021

Changed value of parameter LogFile to lemke_square_v-(6, 4).log-s20-l10.log
   Prev:   Default: 
Changed value of parameter Threads to 32
   Prev: 0  Min: 0  Max: 1024  Default: 0
Changed value of parameter TimeLimit to 3600.0
   Prev: inf  Min: 0.0  Max: inf  Default: inf
Changed value of parameter MIPGap to 0.3
   Prev: 0.0001  Min: 0.0  Max: inf  Default: 0.0001
Warning: variable name "X[(7, 4),(7, 3)]" has a space
Warning: constraint name "flow-constr-t0-v(3, 0)" has a space
Warning: to let Gurobi read it back, use rlp format
Gurobi Optimizer version 9.1.2 build v9.1.2rc0 (linux64)
Thread count: 16 physical cores, 32 logical processors, using up to 32 threads
Optimize a model with 6033 rows, 5440 columns and 20720 nonzeros
Model fingerprint: 0xb9dbbaf1
Variable types: 0 continuous, 5440 integer (4800 binary)
Coefficient statistics:
  Matrix range     [1e+00, 1e+03]
  Objective range  [1e-01, 1e-01]
  Bounds range     [1e+00, 5e+02]
  RHS range        [1e+00, 1e+03]
Presolve removed 477 rows and 500 columns
Presolve time: 0.04s
Presolved: 5556 rows, 4940 columns, 18470 nonzeros
Variable types: 0 continuous, 4940 integer (4300 binary)

Root relaxation: objective 6.400000e+01, 128 iterations, 0.00 seconds

    Nodes    |    Current Node    |     Objective Bounds      |     Work
 Expl Unexpl |  Obj  Depth IntInf | Incumbent    BestBd   Gap | It/Node Time

     0     0   64.00000    0   44          -   64.00000      -     -    0s
     0     0   64.00000    0   73          -   64.00000      -     -    0s
     0     0   64.00000    0   32          -   64.00000      -     -    0s
     0     0   64.00000    0   34          -   64.00000      -     -    0s
     0     0   64.00000    0   47          -   64.00000      -     -    0s
     0     0   64.00000    0   32          -   64.00000      -     -    0s
H    0     0                    3195.0000000   64.00000  98.0%     -    0s
     0     0   64.00000    0   32 3195.00000   64.00000  98.0%     -    0s
H    0     0                     135.7000000   64.00000  52.8%     -    0s
H    0     0                     133.1000000   64.00000  51.9%     -    0s
     0     2   64.00000    0   32  133.10000   64.00000  51.9%     -    0s
H   31    64                     128.5000000   64.00000  50.2%  51.1    1s
H   34    64                     123.1000000   64.00000  48.0%  51.1    1s
H   38    64                     116.5000000   64.00000  45.1%  50.6    1s
H   49    64                     108.0000000   64.00000  40.7%  50.5    1s
H   95   128                     104.7000000   64.00000  38.9%  40.9    3s
H   96   128                     103.6000000   64.00000  38.2%  40.7    3s
H   98   128                     101.4000000   64.00000  36.9%  39.9    3s
H  110   128                      99.7000000   64.00000  35.8%  35.9    3s
  6010  7621   66.20000  162  104   99.70000   64.00000  35.8%  14.7    5s
H10452  9702                      96.4000000   64.00000  33.6%  13.1    6s
H10454  9213                      95.0000000   64.00000  32.6%  13.1    6s
H10455  8752                      94.0000000   64.00000  31.9%  13.1    6s
H10455  8314                      92.1000000   64.00000  30.5%  13.1    6s
H10468  7907                      91.2000000   64.00000  29.8%  13.1    8s

Cutting planes:
  Gomory: 20
  Cover: 136
  Implied bound: 181
  Projected implied bound: 17
  Clique: 38
  MIR: 64
  StrongCG: 2
  Flow cover: 80
  GUB cover: 7
  RLT: 14
  Relax-and-lift: 33

Explored 10468 nodes (148020 simplex iterations) in 8.48 seconds
Thread count was 32 (of 32 available processors)

Solution count 10: 91.2 92.1 94 ... 108

Optimal solution found (tolerance 3.00e-01)
Best objective 9.120000000000e+01, best bound 6.400000000000e+01, gap 29.8246%
